NAME : demo16
COMMENT : (synthetic optopus fixture, Min no of trucks: 6, capacity 35)
TYPE : CVRP
DIMENSION : 16
EDGE_WEIGHT_TYPE : EUC_2D
CAPACITY : 35
NODE_COORD_SECTION
1 35 35
2 41 49
3 35 17
4 55 45
5 55 20
6 15 30
7 25 30
8 20 50
9 10 43
10 55 60
11 30 60
12 20 65
13 50 35
14 30 25
15 15 10
16 30 5
DEMAND_SECTION
1 0
2 10
3 7
4 13
5 19
6 26
7 3
8 5
9 9
10 16
11 16
12 12
13 19
14 23
15 20
16 8
DEPOT_SECTION
1
-1
EOF
